Solver command line: ['C:\\Program Files\\IBM\\ILOG\\CPLEX_Studio2211\\cplex\\bin\\x64_win64\\cplex.exe']


Welcome to IBM(R) ILOG(R) CPLEX(R) Interactive Optimizer 22.1.1.0
  with Simplex, Mixed Integer & Barrier Optimizers
5725-A06 5725-A29 5724-Y48 5724-Y49 5724-Y54 5724-Y55 5655-Y21
Copyright IBM Corp. 1988, 2022.  All Rights Reserved.

Type 'help' for a list of available commands.
Type 'help' followed by a command name for more
information on commands.

CPLEX> Logfile 'cplex.log' closed.
Logfile 'C:\Users\wangy\Documents\GitHub\re_optimization\result_site_specific\tmpz7zfr_07.cplex.log' open.
CPLEX> Problem 'C:\Users\wangy\Documents\GitHub\re_optimization\result_site_specific\tmp9jifpb8r.pyomo.lp' read.
Read time = 0.22 sec. (7.28 ticks)
CPLEX> Problem name         : C:\Users\wangy\Documents\GitHub\re_optimization\result_site_specific\tmp9jifpb8r.pyomo.lp
Objective sense      : Minimize
Variables            :   52617  [Nneg: 27764,  Free: 8786,  Binary: 7,
                                 Other: 16060]
Objective nonzeros   :      14
Linear constraints   :   73052  [Less: 39437,  Greater: 3,  Equal: 33612]
  Nonzeros           :  181168
  RHS nonzeros       :    4142

Variables            : Min LB: 0.000000         Max UB: 1.000000       
Objective nonzeros   : Min   : 1.000000         Max   : 1.000000       
Linear constraints   :
  Nonzeros           : Min   : 0.004870590      Max   : 100000.0       
  RHS nonzeros       : Min   : 0.01400000       Max   : 1000.000       
CPLEX> Version identifier: 22.1.1.0 | 2022-11-27 | 9160aff4d
Tried aggregator 3 times.
MIP Presolve eliminated 47552 rows and 28573 columns.
Aggregator did 7303 substitutions.
Reduced MIP has 18197 rows, 16741 columns, and 52721 nonzeros.
Reduced MIP has 5 binaries, 0 generals, 0 SOSs, and 0 indicators.
Presolve time = 0.12 sec. (153.20 ticks)
Found incumbent of value 153048.506837 after 0.14 sec. (178.70 ticks)
Probing time = 0.00 sec. (1.03 ticks)
Tried aggregator 1 time.
Detecting symmetries...
Reduced MIP has 18197 rows, 16741 columns, and 52721 nonzeros.
Reduced MIP has 5 binaries, 0 generals, 0 SOSs, and 0 indicators.
Presolve time = 0.01 sec. (31.27 ticks)
Probing time = 0.00 sec. (0.93 ticks)
MIP emphasis: balance optimality and feasibility.
MIP search method: dynamic search.
Parallel mode: deterministic, using up to 16 threads.
Root relaxation solution time = 0.52 sec. (471.70 ticks)

        Nodes                                         Cuts/
   Node  Left     Objective  IInf  Best Integer    Best Bound    ItCnt     Gap

*     0+    0                       153048.5068    -3003.8647           101.96%
*     0+    0                         2592.0771    -3003.8647           215.89%
*     0     0      integral     0     2589.5380     2589.5380       46    0.00%
Elapsed time = 0.75 sec. (716.72 ticks, tree = 0.00 MB, solutions = 3)

Root node processing (before b&c):
  Real time             =    0.75 sec. (719.22 ticks)
Parallel b&c, 16 threads:
  Real time             =    0.00 sec. (0.00 ticks)
  Sync time (average)   =    0.00 sec.
  Wait time (average)   =    0.00 sec.
                          ------------
Total (root+branch&cut) =    0.75 sec. (719.22 ticks)

Solution pool: 3 solutions saved.

MIP - Integer optimal solution:  Objective =  2.5895379849e+03
Solution time =    0.77 sec.  Iterations = 46  Nodes = 0
Deterministic time = 719.37 ticks  (939.13 ticks/sec)

CPLEX> Incumbent solution written to file 'C:\Users\wangy\Documents\GitHub\re_optimization\result_site_specific\tmp57js0q72.cplex.sol'.
CPLEX> 
